%%% static parameters %%%
timespan = 1;
Fact = [3];
Distr1 = [10];
Distr2 = [20];
Clients_N = [40];
Demand_W = [15];
Lt0 = [4];
Lt1 = [4];
SS_ = [0.85];
DS_D = [7];
K = [200];
MA = [500];
%%% dynamic parameters %%%
lost_ratio_sales_ret_th = 0.7454588862849711;
lost_ratio_sales_ret_w = 14;
lost_ratio_sales_dis_th = 0.8529645123023573;
lost_ratio_sales_dis_w = 63;
lost_ratio_sales_fac_th = 0.260128338164168;
lost_ratio_sales_fac_w = 48;
stock_customer_MA_mean_relative_th = 0.6466982197352386;
stock_customer_MA_mean_relative_w = 40;
stock_distributor_MA_mean_relative_th = 0.5916166326125368;
stock_distributor_MA_mean_relative_w = 55;
stock_retailer_MA_mean_relative_th = 0.8084957376869574;
stock_retailer_MA_mean_relative_w = 14;
stock_factory_MA_mean_relative_th = 0.919445258411183;
stock_factory_MA_mean_relative_w = 80;
